p cnf 51 39
c p distribution  0.3 0.5 0.2
c p distribution  0.6 0.4
c p distribution  0.75 0.25
c p distribution  0.72 0.28
c p distribution  0.88 0.12
c p distribution  0.64 0.36
c p distribution  0.7 0.3
c p distribution  0.9 0.1
c p distribution  1.0 0.0
c p distribution  1.0 0.0
c p distribution  0.0 1.0
c p distribution  0.0 1.0
c p distribution  0.48 0.42 0.10
c p distribution  0.56 0.36 0.08
c p distribution  0.58 0.24 0.18
c p distribution  0.70 0.21 0.09
38 -1 0
39 -2 0
40 -3 0
41 -4 0
42 -5 0
43 -38 -41 -6 0
44 -38 -41 -7 0
43 -39 -41 -8 0
44 -39 -41 -9 0
43 -40 -41 -10 0
44 -40 -41 -11 0
43 -38 -42 -12 0
44 -38 -42 -13 0
43 -39 -42 -14 0
44 -39 -42 -15 0
43 -40 -42 -16 0
44 -40 -42 -17 0
45 -43 -18 0
46 -43 -19 0
45 -44 -20 0
46 -44 -21 0
47 -43 -22 0
48 -43 -23 0
47 -44 -24 0
48 -44 -25 0
49 -45 -47 -26 0
50 -45 -47 -27 0
51 -45 -47 -28 0
49 -46 -47 -29 0
50 -46 -47 -30 0
51 -46 -47 -31 0
49 -45 -48 -32 0
50 -45 -48 -33 0
51 -45 -48 -34 0
49 -46 -48 -35 0
50 -46 -48 -36 0
51 -46 -48 -37 0
-49 0
-51 0
